sat
(
(define-fun sym209 () String "Y")
(define-fun sym3608 () String "P")
(define-fun sym3707 () String "A")
(define-fun sym817 () String "H")
(define-fun sym1902 () String "P")
(define-fun sym2548 () String "P")
(define-fun sym551 () String "P")
(define-fun sym1469 () String "P")
(define-fun sym1687 () String "H")
(define-fun sym2336 () String "P")
(define-fun sym2972 () String "P")
(define-fun sym1036 () String "P")
(define-fun sym2760 () String "P")
(define-fun sym1254 () String "H")
(define-fun sym2120 () String "H")
(define-fun sym3396 () String "P")
(define-fun sym161 () String "")
(define-fun sym3184 () String "P")
)
